Route 1: 4 92 142 153 28 163 6 49 14 47 3 48 131 156 43 200 63 149 162 132 78 171 130 187 150 100 89 54 140 105 87 176 88 144 71 69 191 113 58 134 13 137 123 11 115 121 17 174 34 19 2 1 60 8 97 30 64 67 39
Route 2: 182 169 152 167 161 98 57 133 72 16 40 147 195 37 9 12 59 143 173 188 29 139 21 166 86 114 56 112 45 108 38 32 117 23 109 189 50 74 52 106 22 129 194 41 126 70 154 158 55 81 107 157 33 66 82
Route 3: 24 172 103 102 196 184 27 190 183 15 179 18 68 7 110 124 180 136 119 101 61 51 91 198 111 145 80 116 95 44 178 90 79 93 146 73 193 120 96 135 141 185 76 75 175 83 148 36
Route 4: 165 85 177 155 127 118 199 84 42 197 5 181 122 35 170 164 104 25 10 77 62 26 159 20 46 138 186 125 192
Route 5: 31 53 160 151 128 94 168 99 65
Vehicles: 5
Distance: 3661.10
